(declare-const X String)
; ^(((\+{1})|(0{2}))98|(0{1}))9[1-9]{1}\d{8}\Z$
(assert (str.in_re X (re.++ (re.union (re.++ (re.union ((_ re.loop 1 1) (str.to_re "+")) ((_ re.loop 2 2) (str.to_re "0"))) (str.to_re "98")) ((_ re.loop 1 1) (str.to_re "0"))) (str.to_re "9") ((_ re.loop 1 1) (re.range "1" "9")) ((_ re.loop 8 8) (re.range "0" "9")) (str.to_re "\u{a}"))))
; ad\x2Emokead\x2Ecom\d+Spy\d+ZOMBIES\x5fHTTP\x5fGETearch\x2Eearthlinkwww\x2Epurityscan\x2EcomUser-Agent\x3a
(assert (str.in_re X (re.++ (str.to_re "ad.mokead.com") (re.+ (re.range "0" "9")) (str.to_re "Spy") (re.+ (re.range "0" "9")) (str.to_re "ZOMBIES_HTTP_GETearch.earthlinkwww.purityscan.comUser-Agent:\u{a}"))))
; /filename=[^\n]*\x2exslt/i
(assert (not (str.in_re X (re.++ (str.to_re "/filename=") (re.* (re.comp (str.to_re "\u{a}"))) (str.to_re ".xslt/i\u{a}")))))
; /filename=[^\n]*\x2evsd/i
(assert (not (str.in_re X (re.++ (str.to_re "/filename=") (re.* (re.comp (str.to_re "\u{a}"))) (str.to_re ".vsd/i\u{a}")))))
; \x2Ftoolbar\x2Fsupremetb\s+wjpropqmlpohj\x2flo\s+resultsmaster\x2Ecom
(assert (not (str.in_re X (re.++ (str.to_re "/toolbar/supremetb") (re.+ (re.union (str.to_re " ") (str.to_re "\u{9}") (str.to_re "\u{a}") (str.to_re "\u{c}") (str.to_re "\u{d}"))) (str.to_re "wjpropqmlpohj/lo") (re.+ (re.union (str.to_re " ") (str.to_re "\u{9}") (str.to_re "\u{a}") (str.to_re "\u{c}") (str.to_re "\u{d}"))) (str.to_re "resultsmaster.com\u{13}\u{a}")))))
(check-sat)

(exit)
